
Gurobi 7.0.2 (win64) logging started 06/27/20 09:18:48

Read LP format model from file C:\George\Professor\Pesquisa\Orientacoes em Pos-graduacao\2019 MSC PPGCC Guilherme Figueroa\Fanjuls Solver\Results\I_100_20_S_1-124_6_MTZ_KB.lp
Reading time = 1.09 seconds
: 14240 rows, 204101 columns, 832020 nonzeros
Optimize a model with 14240 rows, 204101 columns and 832020 nonzeros
Variable types: 2101 continuous, 202000 integer (202000 binary)
Coefficient statistics:
  Matrix range     [1e+00, 1e+02]
  Objective range  [1e+00, 1e+00]
  Bounds range     [1e+00, 1e+00]
  RHS range        [1e+00, 1e+02]
Presolve time: 1.60s
Presolved: 14240 rows, 204101 columns, 832020 nonzeros
Variable types: 100 continuous, 204001 integer (204000 binary)
Found heuristic solution: objective 10842.000000
Found heuristic solution: objective 10670.000000

Root simplex log...

Iteration    Objective       Primal Inf.    Dual Inf.      Time
    3169    7.1363851e-05   6.245357e+03   0.000000e+00      5s
    6277    1.3341468e-04   5.004072e+03   0.000000e+00     10s
    9604    5.9785556e-04   1.494932e+03   0.000000e+00     15s
   17791    3.5642432e+01   8.249474e+02   0.000000e+00     20s
   21935    5.8185576e+01   4.494296e+03   0.000000e+00     25s
   23933    6.0931117e+01   3.232227e+02   0.000000e+00     30s
   24848    6.1214234e+01   0.000000e+00   0.000000e+00     35s

Root relaxation: objective 6.121423e+01, 24848 iterations, 31.30 seconds
Total elapsed time = 35.52s

    Nodes    |    Current Node    |     Objective Bounds      |     Work
 Expl Unexpl |  Obj  Depth IntInf | Incumbent    BestBd   Gap | It/Node Time

     0     0   61.21423    0  582 10670.0000   61.21423  99.4%     -   35s
H    0     0                     218.0000000   61.21423  71.9%     -   78s
     0     0   61.33358    0  590  218.00000   61.33358  71.9%     -  137s
     0     0   61.33358    0  590  218.00000   61.33358  71.9%     -  139s
     0     0   61.33358    0  590  218.00000   61.33358  71.9%     -  163s
     0     0   61.33358    0  590  218.00000   61.33358  71.9%     -  164s
     0     0   61.33358    0  590  218.00000   61.33358  71.9%     -  189s
     0     0   62.00000    0  366  218.00000   62.00000  71.6%     -  640s
     0     0   62.00000    0  366  218.00000   62.00000  71.6%     -  696s
     0     2   62.00000    0  366  218.00000   62.00000  71.6%     -  793s
     1     3   62.00000    1  582  218.00000   62.00000  71.6%  4497  841s
     2     4   62.00000    1  532  218.00000   62.00000  71.6%  2569  870s
     3     5   62.00000    2  592  218.00000   62.00000  71.6%  1924  892s
     4     6   62.00000    2  541  218.00000   62.00000  71.6%  1712  908s
     5     7   62.00000    3  609  218.00000   62.00000  71.6%  1526  937s
     6     8   62.00000    3  548  218.00000   62.00000  71.6%  1523  963s
     7     9   62.00000    4  567  218.00000   62.00000  71.6%  1377  971s
     8    10   62.00000    4  631  218.00000   62.00000  71.6%  1277  989s
     9    11   62.00000    5  604  218.00000   62.00000  71.6%  1205 1005s
    10    12   62.00000    5  541  218.00000   62.00000  71.6%  1161 1015s
    11    13   62.00000    6  582  218.00000   62.00000  71.6%  1100 1022s
    12    13   62.06103    6  569  218.00000   62.00000  71.6%  1101 1039s
    13    13   62.45840    7  524  218.00000   62.00000  71.6%  1219 1064s
    14    14   62.00000    7  573  218.00000   62.00000  71.6%  1162 1068s
    15    14   62.00933    8  550  218.00000   62.00000  71.6%  1177 1084s
    16    15   62.00000    8  579  218.00000   62.00000  71.6%  1319 1109s
    17    16   62.00000    9  577  218.00000   62.00000  71.6%  1277 1114s
    18    16   62.46265    9  524  218.00000   62.00000  71.6%  1326 1130s
    19    16   62.03762   10  571  218.00000   62.00000  71.6%  1298 1137s
    20    16   62.29811   10  516  218.00000   62.00000  71.6%  1337 1153s
    21    17   63.00000   11  570  218.00000   62.00000  71.6%  1489 1193s
    22    18   63.00000   12  550  218.00000   62.00000  71.6%  1441 1206s
    23    19   63.00000   13  548  218.00000   62.00000  71.6%  1527 1242s
    24    20   63.00000   14  536  218.00000   62.00000  71.6%  1489 1252s
    25    21   63.00000   14  571  218.00000   62.00000  71.6%  1453 1262s
    26    22   63.00000   15  564  218.00000   62.00000  71.6%  1423 1271s
    27    23   63.00000   16  554  218.00000   62.00000  71.6%  1395 1325s
    28    23   63.62488   16  521  218.00000   62.00000  71.6%  1435 1340s
    30    24   64.78734   17  486  218.00000   62.00000  71.6%  1550 1371s
    32    24   63.09387   18  514  218.00000   62.00000  71.6%  1524 1385s
    33    25   64.00000   19  567  218.00000   62.00000  71.6%  1679 1426s
    34    26   64.00000   20  584  218.00000   62.00000  71.6%  1647 1439s
    35    27   64.00000   21  569  218.00000   62.00000  71.6%  1622 1449s
    36    28   64.00000   22  563  218.00000   62.00000  71.6%  1586 1456s
    37    28   64.51093   22  462  218.00000   62.00000  71.6%  1641 1475s
    38    29   64.00000   23  560  218.00000   62.00000  71.6%  1622 1483s
    39    30   64.00000   24  538  218.00000   62.00000  71.6%  1609 1491s
    40    31   64.00000   25  572  218.00000   62.00000  71.6%  1584 1499s
    41    31   64.14354   25  450  218.00000   62.00000  71.6%  1590 1510s
    42    32   64.00000   26  579  218.00000   62.00000  71.6%  1566 1517s
    43    33   64.00000   27  573  218.00000   62.00000  71.6%  1539 1521s
    44    34   64.00000   28  590  218.00000   62.00000  71.6%  1518 1525s
    45    34   64.02760   28  427  218.00000   62.00000  71.6%  1566 1539s
    46    35   64.00000   29  588  218.00000   62.00000  71.6%  1542 1543s
    47    35   64.60106   29  428  218.00000   62.00000  71.6%  1559 1554s
    48    36   64.00000   30  574  218.00000   62.00000  71.6%  1538 1557s
    50    38   64.00000   32  567  218.00000   62.00000  71.6%  1490 1560s
    51    38   64.23574   32  389  218.00000   62.00000  71.6%  1487 1565s
    54    41   64.00000   35  579  218.00000   62.00000  71.6%  1420 1612s
    55    41   64.49100   35  420  218.00000   62.00000  71.6%  1433 1645s
    56    41   64.55842   36  464  218.00000   62.00000  71.6%  1497 1666s
    57    42   64.00000   36  575  218.00000   62.00000  71.6%  1482 1670s
    59    44   64.00000   38  544  218.00000   62.00000  71.6%  1453 1676s
    60    45   64.00000   38  473  218.00000   62.00000  71.6%  1449 1682s
    62    46   64.09705   40  417  218.00000   62.00000  71.6%  1414 1686s
    64    47   65.00000   41  465  218.00000   62.00000  71.6%  1440 1716s
    65    48   65.00000   42  471  218.00000   62.00000  71.6%  1424 1727s
    66    49   65.00000   43  482  218.00000   62.00000  71.6%  1454 1744s
    67    50   65.00000   43  493  218.00000   62.00000  71.6%  1441 1756s
    68    51   65.00000   44  512  218.00000   62.00000  71.6%  1428 1766s
    69    51   65.76279   44  393  218.00000   62.00000  71.6%  1461 1783s
    70    52   65.00000   45  523  218.00000   62.00000  71.6%  1450 1789s
    71    52   65.04964   45  408  218.00000   62.00000  71.6%  1476 1807s
    72    53   65.00000   46  524  218.00000   62.00000  71.6%  1469 1814s
    73    54   65.00000   47  518  218.00000   62.00000  71.6%  1452 1817s
    74    54   65.94152   47  482  218.00000   62.00000  71.6%  1492 1831s
    75    55   65.00000   48  531  218.00000   62.00000  71.6%  1476 1836s
    76    56   65.00000   49  537  218.00000   62.00000  71.6%  1473 1844s
    77    57   65.00000   49  501  218.00000   62.00000  71.6%  1495 1859s
    78    58   65.00000   50  514  218.00000   62.00000  71.6%  1477 1864s
    79    58   65.40478   50  400  218.00000   62.00000  71.6%  1487 1875s
    80    59   65.00000   51  539  218.00000   62.00000  71.6%  1478 1885s
H   81    58                     162.0000000   62.00000  61.7%  1460 1909s
    81    60   65.00000   52  522  162.00000   62.00000  61.7%  1463 1911s
    82    60   65.16108   52  354  162.00000   62.00000  61.7%  1480 1920s
    83    61   65.00000   53  511  162.00000   62.00000  61.7%  1536 1951s
    84    62   65.00000   54  531  162.00000   62.00000  61.7%  1520 1962s
    85    63   65.00000   55  504  162.00000   62.00000  61.7%  1510 1968s
    86    64   65.00000   56  503  162.00000   62.00000  61.7%  1502 1971s
    87    64   65.41247   56  366  162.00000   62.00000  61.7%  1533 1987s
    88    65   65.00000   57  503  162.00000   62.00000  61.7%  1518 1990s
    92    69   65.00000   60  478  162.00000   62.00000  61.7%  1494 2006s
H   94    69                      93.0000000   62.00000  33.3%  1471 2197s
H   94    69                      82.0000000   62.00000  24.4%  1471 2334s
    94    70   65.06894   62  356   82.00000   62.00000  24.4%  1500 2335s
    95    70   66.12378   62  350   82.00000   62.00000  24.4%  1511 2345s
    96    71   66.00000   63  406   82.00000   62.00000  24.4%  1534 2362s
    97    72   66.00000   64  454   82.00000   62.00000  24.4%  1521 2369s
    98    73   66.00000   65  400   82.00000   62.00000  24.4%  1513 2374s
    99    74   66.00000   66  430   82.00000   62.00000  24.4%  1503 2377s
   100    75   66.00000   67  456   82.00000   62.00000  24.4%  1495 2381s
   101    76   66.00000   67  406   82.00000   62.00000  24.4%  1499 2388s
   102    76   66.03122   68  394   82.00000   62.00000  24.4%  1488 2390s
   103    76   66.44843   68  344   82.00000   62.00000  24.4%  1489 2395s
   104    77   67.00000   69  433   82.00000   62.00000  24.4%  1510 2411s
   105    78   69.00000   70  500   82.00000   62.00000  24.4%  1499 2427s
   106    79   67.00000   70  447   82.00000   62.00000  24.4%  1497 2433s
   107    80   67.00000   71  461   82.00000   62.00000  24.4%  1487 2437s
   108    81   67.00000   72  483   82.00000   62.00000  24.4%  1482 2442s
   110    82   67.16094   74  352   82.00000   62.00000  24.4%  1469 2447s
   112    83   68.00000   75  451   82.00000   62.00000  24.4%  1470 2460s
   114    85   68.00000   77  428   82.00000   62.00000  24.4%  1449 2466s
   115    85   68.23776   77  406   82.00000   62.00000  24.4%  1456 2474s
   116    86   68.00000   78  448   82.00000   62.00000  24.4%  1445 2477s
   118    88   68.00000   80  458   82.00000   62.00000  24.4%  1427 2481s
   119    89   68.00000   81  492   82.00000   62.00000  24.4%  1431 2489s
   120    90   68.00000   82  463   82.00000   62.00000  24.4%  1424 2491s
   122    92   68.00000   83  478   82.00000   62.00000  24.4%  1415 2497s
   124    92   68.38930   84  368   82.00000   62.00000  24.4%  1405 2502s
   125    93   69.00000   85  440   82.00000   62.00000  24.4%  1416 2512s
   126    94   69.00000   86  440   82.00000   62.00000  24.4%  1411 2519s
   127    95   69.00000   87  451   82.00000   62.00000  24.4%  1406 2522s
   128    95   72.01500   88  488   82.00000   62.00000  24.4%  1424 2547s
   129    95   69.32668   88  382   82.00000   62.00000  24.4%  1422 2551s
   130    96   70.00000   89  440   82.00000   62.00000  24.4%  1430 2560s
   132    98   70.00000   91  413   82.00000   62.00000  24.4%  1414 2566s
   135    99   70.00000   93  443   82.00000   62.00000  24.4%  1398 2575s
   138   101   70.46432   95  402   82.00000   62.00000  24.4%  1380 2581s
   141   102   70.75314   97  329   82.00000   62.00000  24.4%  1362 2585s
   142   103   71.00000   98  433   82.00000   62.00000  24.4%  1367 2591s
   143   104   71.00000   99  401   82.00000   62.00000  24.4%  1377 2599s
   144   105   71.00000  100  385   82.00000   62.00000  24.4%  1368 2600s
   145   105   72.04534  100  359   82.00000   62.00000  24.4%  1371 2606s
   147   106   71.00000  101  422   82.00000   62.00000  24.4%  1363 2610s
   149   107   71.07147  103  331   82.00000   62.00000  24.4%  1357 2615s
   151   108   72.00000  104  366   82.00000   62.00000  24.4%  1360 2624s
   152   109   72.00000  105  393   82.00000   62.00000  24.4%  1352 2627s
   153   110   72.00000  105  379   82.00000   62.00000  24.4%  1351 2630s
   156   113   72.00000  108  356   82.00000   62.00000  24.4%  1328 2635s
   158   115   72.00000  110  409   82.00000   62.00000  24.4%  1316 2640s
   160   117   72.00000  112  389   82.00000   62.00000  24.4%  1312 2646s
   162   119   72.00000  113  406   82.00000   62.00000  24.4%  1303 2651s
   165   120   72.16084  115  287   82.00000   62.00000  24.4%  1289 2656s
   166   120   73.00000  116  336   82.00000   62.00000  24.4%  1290 2661s
   169   122   73.00000  119  346   82.00000   62.00000  24.4%  1269 2665s
   173   123   73.00000  122  426   82.00000   62.00000  24.4%  1244 2670s
   177   126   73.00000  126  363   82.00000   62.00000  24.4%  1223 2675s
   180   126   73.00000  128  407   82.00000   62.00000  24.4%  1208 2680s
   187   131   73.00000  135  374   82.00000   62.00000  24.4%  1169 2685s
   189   132   73.06226  137  278   82.00000   62.00000  24.4%  1161 2702s
   191   133   74.00000  138  331   82.00000   62.00000  24.4%  1158 2707s
   193   134   74.00000  140  381   82.00000   62.00000  24.4%  1152 2711s
   198   138   74.00000  145  371   82.00000   62.00000  24.4%  1128 2715s
   203   138   62.00000    2  567   82.00000   62.00000  24.4%  1109 2722s
   204   139   62.00000    3  590   82.00000   62.00000  24.4%  1112 2731s
   206   140   62.30452    5  526   82.00000   62.00000  24.4%  1109 2737s
   208   141   62.17614    6  543   82.00000   62.00000  24.4%  1103 2741s
   210   142   63.00000    7  594   82.00000   62.00000  24.4%  1137 2781s
   211   143   63.00000    8  576   82.00000   62.00000  24.4%  1136 2786s
   213   145   63.00000   10  609   82.00000   62.00000  24.4%  1127 2790s
   215   146   63.00000   11  593   82.00000   62.00000  24.4%  1122 2795s
   216   146   63.22351   12  530   82.00000   62.00000  24.4%  1122 2928s
   218   148   63.00000   13  583   82.00000   62.00000  24.4%  1114 2930s
   221   150   63.08269   16  531   82.00000   62.00000  24.4%  1105 2936s
   222   150   63.25544   16  565   82.00000   62.00000  24.4%  1106 2941s
   223   151   64.00000   17  531   82.00000   62.00000  24.4%  1126 2963s
   224   152   64.00000   18  574   82.00000   62.00000  24.4%  1123 2967s
   225   153   64.00000   18  596   82.00000   62.00000  24.4%  1119 2974s
   226   154   64.00000   19  552   82.00000   62.00000  24.4%  1116 2977s
   227   155   64.00000   19  526   82.00000   62.00000  24.4%  1113 2980s
   230   158   64.00000   21  516   82.00000   62.00000  24.4%  1105 2986s
   231   158   64.03229   22  490   82.00000   62.00000  24.4%  1104 2990s
   233   159   65.00000   23  548   82.00000   62.00000  24.4%  1112 3005s
   235   161   65.00000   25  491   82.00000   62.00000  24.4%  1104 3011s
   237   163   65.00000   27  499   82.00000   62.00000  24.4%  1098 3018s
   239   163   78.21000   28  564   82.00000   62.00000  24.4%  1093 3041s
   241   165   65.00000   30  478   82.00000   62.00000  24.4%  1088 3047s
   243   167   65.00000   31  463   82.00000   62.00000  24.4%  1085 3053s
   245   167   65.84857   32  416   82.00000   62.00000  24.4%  1082 3059s
   246   168   66.00000   33  504   82.00000   62.00000  24.4%  1121 3084s
   247   169   66.00000   34  480   82.00000   62.00000  24.4%  1119 3086s
   250   170   67.00000   36  501   82.00000   62.00000  24.4%  1146 3111s
   252   172   67.00000   38  509   82.00000   62.00000  24.4%  1139 3116s
   254   174   67.00000   40  487   82.00000   62.00000  24.4%  1131 3121s
   257   177   67.00000   43  495   82.00000   62.00000  24.4%  1122 3125s
   259   178   67.04431   44  467   82.00000   62.00000  24.4%  1119 3130s
   263   181   73.51000   48  545   82.00000   62.00000  24.4%  1113 3153s
   265   182   68.00000   49  483   82.00000   62.00000  24.4%  1116 3160s
   267   184   68.00000   51  482   82.00000   62.00000  24.4%  1109 3165s
   270   187   68.00000   54  526   82.00000   62.00000  24.4%  1100 3170s
   274   191   68.00000   58  474   82.00000   62.00000  24.4%  1087 3175s
   278   191   68.46609   60  374   82.00000   62.00000  24.4%  1081 3181s
   279   192   69.00000   61  410   82.00000   62.00000  24.4%  1088 3188s
   281   193   69.00000   62  414   82.00000   62.00000  24.4%  1083 3191s
   283   194   69.35295   63  417   82.00000   62.00000  24.4%  1079 3195s
   284   195   70.00000   64  463   82.00000   62.00000  24.4%  1084 3201s
   286   195   71.06933   65  382   82.00000   62.00000  24.4%  1081 3205s
   290   199   70.00000   69  460   82.00000   62.00000  24.4%  1070 3210s
   296   204   71.26373   73  346   82.00000   62.00000  24.4%  1056 3217s
   299   206   70.06459   76  353   82.00000   62.00000  24.4%  1049 3220s
   301   207   71.00000   77  399   82.00000   62.00000  24.4%  1050 3225s
   304   209   71.00000   79  396   82.00000   62.00000  24.4%  1043 3230s
   308   212   71.00000   82  401   82.00000   62.00000  24.4%  1036 3236s
   311   213   71.23934   83  362   82.00000   62.00000  24.4%  1031 3241s
   312   214   72.00000   84  381   82.00000   62.00000  24.4%  1033 3245s
   314   215   72.00000   86  397   82.00000   62.00000  24.4%  1028 3250s
   322   221   72.04712   93  294   82.00000   62.00000  24.4%  1008 3255s
   323   221   73.00000   94  401   82.00000   62.00000  24.4%  1012 3260s
   326   223   73.00000   97  416   82.00000   62.00000  24.4%  1003 3265s
   330   226   76.00000  101  362   82.00000   62.00000  24.4%   993 3270s
   337   233   73.00000  107  407   82.00000   62.00000  24.4%   976 3275s
   347   240   73.80327  117  298   82.00000   62.00000  24.4%   952 3280s
   352   242   75.32000  121  339   82.00000   62.00000  24.4%   944 3288s
   355   243   74.00000  123  343   82.00000   62.00000  24.4%   937 3290s
   365   248   74.00000  133  317   82.00000   62.00000  24.4%   913 3295s
   369   250   79.06000  136  293   82.00000   62.00000  24.4%   907 3300s
   376   252   76.53215  141  290   82.00000   62.00000  24.4%   898 3305s
   378   252   76.87543  143  286   82.00000   62.00000  24.4%   893 3334s
   380   252   77.11413  145  298   82.00000   62.00000  24.4%   889 3335s
   390   255   78.00000  155  332   82.00000   62.00000  24.4%   869 3340s
   405   261   79.00000  169  319   82.00000   62.00000  24.4%   842 3345s
   427   272   80.10077  187  254   82.00000   62.00000  24.4%   803 3350s
   433   272   62.00000    3  567   82.00000   62.00000  24.4%   795 3355s
   435   272   62.25912    4  554   82.00000   62.00000  24.4%   796 3362s
   436   273   63.00000    5  593   82.00000   62.00000  24.4%   802 3374s
   437   274   63.00000    6  588   82.00000   62.00000  24.4%   801 3376s
   438   275   63.00000    7  581   82.00000   62.00000  24.4%   802 3381s
   440   276   64.00000    9  610   82.00000   62.00000  24.4%   808 3395s
   444   280   64.00000   13  587   82.00000   62.00000  24.4%   803 3400s
   447   283   64.00000   16  580   82.00000   62.00000  24.4%   802 3406s
   451   285   64.47403   19  497   82.00000   62.00000  24.4%   800 3412s
   452   286   65.00000   20  589   82.00000   62.00000  24.4%   810 3426s
   454   288   65.00000   22  573   82.00000   62.00000  24.4%   807 3432s
   456   290   65.00000   24  550   82.00000   62.00000  24.4%   805 3436s
   459   293   65.00000   26  540   82.00000   62.00000  24.4%   803 3440s
   460   293   65.00721   27  523   82.00000   62.00000  24.4%   803 3554s
   461   293   65.17127   27  506   82.00000   62.00000  24.4%   804 3559s
   462   294   66.00000   28  528   82.00000   62.00000  24.4%   809 3573s
   463   295   66.00000   29  557   82.00000   62.00000  24.4%   809 3576s
   465   297   66.00000   31  553   82.00000   62.00000  24.4%   807 3580s
   467   299   66.00000   33  499   82.00000   62.00000  24.4%   806 3585s
   471   302   66.00000   36  490   82.00000   62.00000  24.4%   803 3590s
   474   303   66.17020   38  497   82.00000   62.00000  24.4%   803 3596s

Cutting planes:
  Learned: 2
  Implied bound: 2
  MIR: 89
  Inf proof: 1

Explored 475 nodes (440824 simplex iterations) in 3600.35 seconds
Thread count was 1 (of 12 available processors)

Solution count 6: 82 93 162 ... 10842
Pool objective bound 62

Time limit reached
Best objective 8.200000000000e+01, best bound 6.200000000000e+01, gap 24.3902%
